Cars = 1..100;
Options = 1..5;
Classes = 1..23;
sequenceMinCapacity = [0, 0, 0, 0, 0];
sequenceMaxCapacity = [1, 2, 1, 2, 1];
sequenceSize = [2, 3, 3, 5, 5];
numOrdered = [14, 11, 2, 1, 1, 3, 5, 4, 1, 5, 3, 2, 2, 7, 9, 14, 3, 2, 6, 2, 1, 1, 1];
classHasOption = [|false,  true, false, false, false
                  | true, false, false, false, false
                  |false,  true,  true,  true, false
                  |false,  true,  true, false,  true
                  | true, false, false,  true,  true
                  | true, false,  true, false, false
                  |false, false, false,  true, false
                  | true, false, false,  true, false
                  | true,  true,  true,  true,  true
                  |false, false,  true, false, false
                  | true,  true, false,  true, false
                  | true,  true, false,  true,  true
                  | true,  true,  true, false,  true
                  |false,  true,  true, false, false
                  |false,  true, false,  true, false
                  | true,  true, false, false, false
                  |false,  true, false,  true,  true
                  |false, false,  true, false,  true
                  | true,  true,  true, false, false
                  | true,  true,  true,  true, false
                  |false,  true, false, false,  true
                  |false, false, false, false,  true
                  |false, false, false,  true,  true|];
optionOrdering = [1, 3, 5, 2, 4];
